Section 2 Modelling the Task Allocation Problem/Instance4.param
language ESSENCE' 1.0

letting NumberOfPeople be 5
letting NumberOfTask be 5
letting Deadline be 50
letting Duration be [50,50,50,50,50]
letting Bids be [[true,true,true,true,true],[true,true,true,true,true],[true,true,true,true,true],[true,true,true,true,true],[true,true,true,true,true]]


