Section 2 Modelling the Task Allocation Problem/Instance4.param.solution
language ESSENCE' 1.0
$ Minion SolverNodes: 85
$ Minion SolverTotalTime: 0.021877
$ Minion SolverTimeOut: 0
$ Savile Row TotalTime: 0.525
letting Allocation be [[false, false, false, false, true], 
[false, false, false, true, false], 
[false, false, true, false, false], 
[false, true, false, false, false], 
[true, false, false, false, false]]
letting cost be 0
